0 12 6 11 8 11 15
10 0 11 13 8 12 5
13 12 0 5 11 7 13
12 9 6 0 7 7 11
13 7 5 7 0 9 7
10 13 5 12 8 0 10
11 14 9 9 5 11 0

0 13 15 13 13 6 9
14 0 6 8 9 8 5
8 5 0 9 9 15 5
13 10 11 0 5 8 15
6 13 5 7 0 6 7
9 12 11 7 6 0 5
12 7 10 6 8 5 0

0 6 9 11 9 13 14
11 0 6 14 9 9 10
8 15 0 8 10 6 8
6 9 11 0 15 13 13
6 8 14 8 0 7 10
5 5 10 11 15 0 6
9 10 13 5 9 15 0

